objective value:                                 1496
x_0_4                                               1 	(obj:111)
x_1_6                                               1 	(obj:106)
x_2_6                                               1 	(obj:78)
x_3_1                                               1 	(obj:129)
x_4_7                                               1 	(obj:105)
x_5_0                                               1 	(obj:131)
x_6_3                                               1 	(obj:115)
x_9_10                                              1 	(obj:77)
x_10_2                                              1 	(obj:123)
x_12_8                                              1 	(obj:88)
x_13_5                                              1 	(obj:111)
x_15_9                                              1 	(obj:80)
x_17_9                                              1 	(obj:89)
x_18_8                                              1 	(obj:82)
x_19_10                                             1 	(obj:71)
